NAME: Test Reference Database for Integration Testing
PRECURSORMZ: 100.0000
PRECURSORTYPE: [M+H]+
RETENTIONTIME: 1.0
IONMODE: Positive
FORMULA: C6H12O6
SMILES: C(C1C(C(C(C(O1)O)O)O)O)O
INCHIKEY: WQZGKKKJIJFFOK-UHFFFAOYSA-N
INSTRUMENTTYPE: LC-ESI-QTOF
INSTRUMENT: Test Instrument
IONIZATION: ESI
SPECTRUMTYPE: MS2
COLLISIONENERGY: 20
Num Peaks: 5
43.0178 200
57.0335 150
71.0491 300
85.0284 500
100.0000 999

